p tw 256 3840
0 1
0 2
0 3
0 4
0 5
0 6
0 7
0 8
0 9
0 10
0 11
0 12
0 13
0 14
0 15
0 21
0 48
0 96
0 104
0 121
0 156
0 157
0 158
0 159
0 160
0 161
0 162
0 163
0 164
0 165
1 2
1 3
1 4
1 5
1 6
1 7
1 8
1 9
1 10
1 11
1 12
1 13
1 14
1 15
1 16
1 59
1 74
1 75
1 76
1 77
1 78
1 79
1 80
1 81
1 82
1 83
1 84
1 85
1 86
2 3
2 4
2 5
2 6
2 7
2 8
2 9
2 10
2 11
2 12
2 13
2 14
2 15
2 17
2 51
2 89
2 100
2 122
2 179
2 203
2 216
2 222
2 234
2 241
2 248
2 250
2 252
2 255
3 4
3 5
3 6
3 7
3 8
3 9
3 10
3 11
3 12
3 13
3 14
3 15
3 19
3 47
3 92
3 103
3 118
3 146
3 147
3 148
3 149
3 150
3 151
3 152
3 153
3 154
3 155
4 5
4 6
4 7
4 8
4 9
4 10
4 11
4 12
4 13
4 14
4 15
4 18
4 49
4 87
4 105
4 114
4 176
4 202
4 217
4 221
4 226
4 227
4 228
4 229
4 230
4 231
5 6
5 7
5 8
5 9
5 10
5 11
5 12
5 13
5 14
5 15
5 20
5 52
5 93
5 101
5 119
5 166
5 167
5 168
5 169
5 170
5 171
5 172
5 173
5 174
5 175
6 7
6 8
6 9
6 10
6 11
6 12
6 13
6 14
6 15
6 25
6 32
6 33
6 34
6 35
6 36
6 37
6 38
6 39
6 40
6 41
6 42
6 43
6 44
6 45
7 8
7 9
7 10
7 11
7 12
7 13
7 14
7 15
7 31
7 56
7 94
7 112
7 117
7 181
7 193
7 194
7 195
7 196
7 197
7 198
7 199
7 200
7 201
8 9
8 10
8 11
8 12
8 13
8 14
8 15
8 24
8 57
8 61
8 62
8 63
8 64
8 65
8 66
8 67
8 68
8 69
8 70
8 71
8 72
8 73
9 10
9 11
9 12
9 13
9 14
9 15
9 23
9 50
9 99
9 107
9 125
9 178
9 205
9 218
9 225
9 233
9 243
9 249
9 251
9 253
9 254
10 11
10 12
10 13
10 14
10 15
10 28
10 53
10 90
10 109
10 116
10 180
10 184
10 185
10 186
10 187
10 188
10 189
10 190
10 191
10 192
11 12
11 13
11 14
11 15
11 26
11 54
11 88
11 102
11 113
11 182
11 204
11 219
11 223
11 232
11 242
11 244
11 245
11 246
11 247
12 13
12 14
12 15
12 30
12 55
12 98
12 111
12 123
12 136
12 137
12 138
12 139
12 140
12 141
12 142
12 143
12 144
12 145
13 14
13 15
13 27
13 60
13 97
13 108
13 124
13 183
13 206
13 220
13 224
13 235
13 236
13 237
13 238
13 239
13 240
14 15
14 22
14 58
14 91
14 106
14 115
14 126
14 127
14 128
14 129
14 130
14 131
14 132
14 133
14 134
14 135
15 29
15 46
15 95
15 110
15 120
15 177
15 207
15 208
15 209
15 210
15 211
15 212
15 213
15 214
15 215
16 17
16 18
16 19
16 20
16 21
16 22
16 23
16 24
16 25
16 26
16 27
16 28
16 29
16 30
16 31
16 59
16 74
16 75
16 76
16 77
16 78
16 79
16 80
16 81
16 82
16 83
16 84
16 85
16 86
17 18
17 19
17 20
17 21
17 22
17 23
17 24
17 25
17 26
17 27
17 28
17 29
17 30
17 31
17 51
17 89
17 100
17 122
17 179
17 203
17 216
17 222
17 234
17 241
17 248
17 250
17 252
17 255
18 19
18 20
18 21
18 22
18 23
18 24
18 25
18 26
18 27
18 28
18 29
18 30
18 31
18 49
18 87
18 105
18 114
18 176
18 202
18 217
18 221
18 226
18 227
18 228
18 229
18 230
18 231
19 20
19 21
19 22
19 23
19 24
19 25
19 26
19 27
19 28
19 29
19 30
19 31
19 47
19 92
19 103
19 118
19 146
19 147
19 148
19 149
19 150
19 151
19 152
19 153
19 154
19 155
20 21
20 22
20 23
20 24
20 25
20 26
20 27
20 28
20 29
20 30
20 31
20 52
20 93
20 101
20 119
20 166
20 167
20 168
20 169
20 170
20 171
20 172
20 173
20 174
20 175
21 22
21 23
21 24
21 25
21 26
21 27
21 28
21 29
21 30
21 31
21 48
21 96
21 104
21 121
21 156
21 157
21 158
21 159
21 160
21 161
21 162
21 163
21 164
21 165
22 23
22 24
22 25
22 26
22 27
22 28
22 29
22 30
22 31
22 58
22 91
22 106
22 115
22 126
22 127
22 128
22 129
22 130
22 131
22 132
22 133
22 134
22 135
23 24
23 25
23 26
23 27
23 28
23 29
23 30
23 31
23 50
23 99
23 107
23 125
23 178
23 205
23 218
23 225
23 233
23 243
23 249
23 251
23 253
23 254
24 25
24 26
24 27
24 28
24 29
24 30
24 31
24 57
24 61
24 62
24 63
24 64
24 65
24 66
24 67
24 68
24 69
24 70
24 71
24 72
24 73
25 26
25 27
25 28
25 29
25 30
25 31
25 32
25 33
25 34
25 35
25 36
25 37
25 38
25 39
25 40
25 41
25 42
25 43
25 44
25 45
26 27
26 28
26 29
26 30
26 31
26 54
26 88
26 102
26 113
26 182
26 204
26 219
26 223
26 232
26 242
26 244
26 245
26 246
26 247
27 28
27 29
27 30
27 31
27 60
27 97
27 108
27 124
27 183
27 206
27 220
27 224
27 235
27 236
27 237
27 238
27 239
27 240
28 29
28 30
28 31
28 53
28 90
28 109
28 116
28 180
28 184
28 185
28 186
28 187
28 188
28 189
28 190
28 191
28 192
29 30
29 31
29 46
29 95
29 110
29 120
29 177
29 207
29 208
29 209
29 210
29 211
29 212
29 213
29 214
29 215
30 31
30 55
30 98
30 111
30 123
30 136
30 137
30 138
30 139
30 140
30 141
30 142
30 143
30 144
30 145
31 56
31 94
31 112
31 117
31 181
31 193
31 194
31 195
31 196
31 197
31 198
31 199
31 200
31 201
32 33
32 34
32 35
32 36
32 37
32 38
32 39
32 40
32 41
32 42
32 43
32 44
32 45
32 73
32 86
32 130
32 137
32 148
32 160
32 171
32 176
32 177
32 178
32 179
32 180
32 181
32 182
32 183
33 34
33 35
33 36
33 37
33 38
33 39
33 40
33 41
33 42
33 43
33 44
33 45
33 69
33 76
33 134
33 142
33 149
33 156
33 170
33 191
33 200
33 210
33 231
33 236
33 246
33 248
33 249
34 35
34 36
34 37
34 38
34 39
34 40
34 41
34 42
34 43
34 44
34 45
34 66
34 78
34 135
34 143
34 150
34 161
34 169
34 192
34 201
34 211
34 216
34 217
34 218
34 219
34 220
35 36
35 37
35 38
35 39
35 40
35 41
35 42
35 43
35 44
35 45
35 46
35 47
35 48
35 49
35 50
35 51
35 52
35 53
35 54
35 55
35 56
35 57
35 58
35 59
35 60
36 37
36 38
36 39
36 40
36 41
36 42
36 43
36 44
36 45
36 72
36 81
36 131
36 138
36 146
36 159
36 168
36 188
36 193
36 214
36 229
36 238
36 245
36 252
36 253
37 38
37 39
37 40
37 41
37 42
37 43
37 44
37 45
37 70
37 82
37 132
37 139
37 147
37 157
37 166
37 189
37 195
37 215
37 227
37 239
37 241
37 242
37 243
38 39
38 40
38 41
38 42
38 43
38 44
38 45
38 68
38 75
38 126
38 141
38 155
38 162
38 174
38 186
38 198
38 208
38 226
38 237
38 247
38 250
38 251
39 40
39 41
39 42
39 43
39 44
39 45
39 71
39 80
39 133
39 140
39 151
39 158
39 167
39 190
39 196
39 202
39 203
39 204
39 205
39 206
39 207
40 41
40 42
40 43
40 44
40 45
40 67
40 77
40 129
40 145
40 153
40 163
40 175
40 187
40 199
40 209
40 221
40 222
40 223
40 224
40 225
41 42
41 43
41 44
41 45
41 65
41 79
41 87
41 88
41 89
41 90
41 91
41 92
41 93
41 94
41 95
41 96
41 97
41 98
41 99
42 43
42 44
42 45
42 64
42 83
42 113
42 114
42 115
42 116
42 117
42 118
42 119
42 120
42 121
42 122
42 123
42 124
42 125
43 44
43 45
43 62
43 84
43 128
43 144
43 152
43 164
43 172
43 184
43 194
43 212
43 228
43 240
43 244
43 254
43 255
44 45
44 61
44 85
44 127
44 136
44 154
44 165
44 173
44 185
44 197
44 213
44 230
44 232
44 233
44 234
44 235
45 63
45 74
45 100
45 101
45 102
45 103
45 104
45 105
45 106
45 107
45 108
45 109
45 110
45 111
45 112
46 47
46 48
46 49
46 50
46 51
46 52
46 53
46 54
46 55
46 56
46 57
46 58
46 59
46 60
46 95
46 110
46 120
46 177
46 207
46 208
46 209
46 210
46 211
46 212
46 213
46 214
46 215
47 48
47 49
47 50
47 51
47 52
47 53
47 54
47 55
47 56
47 57
47 58
47 59
47 60
47 92
47 103
47 118
47 146
47 147
47 148
47 149
47 150
47 151
47 152
47 153
47 154
47 155
48 49
48 50
48 51
48 52
48 53
48 54
48 55
48 56
48 57
48 58
48 59
48 60
48 96
48 104
48 121
48 156
48 157
48 158
48 159
48 160
48 161
48 162
48 163
48 164
48 165
49 50
49 51
49 52
49 53
49 54
49 55
49 56
49 57
49 58
49 59
49 60
49 87
49 105
49 114
49 176
49 202
49 217
49 221
49 226
49 227
49 228
49 229
49 230
49 231
50 51
50 52
50 53
50 54
50 55
50 56
50 57
50 58
50 59
50 60
50 99
50 107
50 125
50 178
50 205
50 218
50 225
50 233
50 243
50 249
50 251
50 253
50 254
51 52
51 53
51 54
51 55
51 56
51 57
51 58
51 59
51 60
51 89
51 100
51 122
51 179
51 203
51 216
51 222
51 234
51 241
51 248
51 250
51 252
51 255
52 53
52 54
52 55
52 56
52 57
52 58
52 59
52 60
52 93
52 101
52 119
52 166
52 167
52 168
52 169
52 170
52 171
52 172
52 173
52 174
52 175
53 54
53 55
53 56
53 57
53 58
53 59
53 60
53 90
53 109
53 116
53 180
53 184
53 185
53 186
53 187
53 188
53 189
53 190
53 191
53 192
54 55
54 56
54 57
54 58
54 59
54 60
54 88
54 102
54 113
54 182
54 204
54 219
54 223
54 232
54 242
54 244
54 245
54 246
54 247
55 56
55 57
55 58
55 59
55 60
55 98
55 111
55 123
55 136
55 137
55 138
55 139
55 140
55 141
55 142
55 143
55 144
55 145
56 57
56 58
56 59
56 60
56 94
56 112
56 117
56 181
56 193
56 194
56 195
56 196
56 197
56 198
56 199
56 200
56 201
57 58
57 59
57 60
57 61
57 62
57 63
57 64
57 65
57 66
57 67
57 68
57 69
57 70
57 71
57 72
57 73
58 59
58 60
58 91
58 106
58 115
58 126
58 127
58 128
58 129
58 130
58 131
58 132
58 133
58 134
58 135
59 60
59 74
59 75
59 76
59 77
59 78
59 79
59 80
59 81
59 82
59 83
59 84
59 85
59 86
60 97
60 108
60 124
60 183
60 206
60 220
60 224
60 235
60 236
60 237
60 238
60 239
60 240
61 62
61 63
61 64
61 65
61 66
61 67
61 68
61 69
61 70
61 71
61 72
61 73
61 85
61 127
61 136
61 154
61 165
61 173
61 185
61 197
61 213
61 230
61 232
61 233
61 234
61 235
62 63
62 64
62 65
62 66
62 67
62 68
62 69
62 70
62 71
62 72
62 73
62 84
62 128
62 144
62 152
62 164
62 172
62 184
62 194
62 212
62 228
62 240
62 244
62 254
62 255
63 64
63 65
63 66
63 67
63 68
63 69
63 70
63 71
63 72
63 73
63 74
63 100
63 101
63 102
63 103
63 104
63 105
63 106
63 107
63 108
63 109
63 110
63 111
63 112
64 65
64 66
64 67
64 68
64 69
64 70
64 71
64 72
64 73
64 83
64 113
64 114
64 115
64 116
64 117
64 118
64 119
64 120
64 121
64 122
64 123
64 124
64 125
65 66
65 67
65 68
65 69
65 70
65 71
65 72
65 73
65 79
65 87
65 88
65 89
65 90
65 91
65 92
65 93
65 94
65 95
65 96
65 97
65 98
65 99
66 67
66 68
66 69
66 70
66 71
66 72
66 73
66 78
66 135
66 143
66 150
66 161
66 169
66 192
66 201
66 211
66 216
66 217
66 218
66 219
66 220
67 68
67 69
67 70
67 71
67 72
67 73
67 77
67 129
67 145
67 153
67 163
67 175
67 187
67 199
67 209
67 221
67 222
67 223
67 224
67 225
68 69
68 70
68 71
68 72
68 73
68 75
68 126
68 141
68 155
68 162
68 174
68 186
68 198
68 208
68 226
68 237
68 247
68 250
68 251
69 70
69 71
69 72
69 73
69 76
69 134
69 142
69 149
69 156
69 170
69 191
69 200
69 210
69 231
69 236
69 246
69 248
69 249
70 71
70 72
70 73
70 82
70 132
70 139
70 147
70 157
70 166
70 189
70 195
70 215
70 227
70 239
70 241
70 242
70 243
71 72
71 73
71 80
71 133
71 140
71 151
71 158
71 167
71 190
71 196
71 202
71 203
71 204
71 205
71 206
71 207
72 73
72 81
72 131
72 138
72 146
72 159
72 168
72 188
72 193
72 214
72 229
72 238
72 245
72 252
72 253
73 86
73 130
73 137
73 148
73 160
73 171
73 176
73 177
73 178
73 179
73 180
73 181
73 182
73 183
74 75
74 76
74 77
74 78
74 79
74 80
74 81
74 82
74 83
74 84
74 85
74 86
74 100
74 101
74 102
74 103
74 104
74 105
74 106
74 107
74 108
74 109
74 110
74 111
74 112
75 76
75 77
75 78
75 79
75 80
75 81
75 82
75 83
75 84
75 85
75 86
75 126
75 141
75 155
75 162
75 174
75 186
75 198
75 208
75 226
75 237
75 247
75 250
75 251
76 77
76 78
76 79
76 80
76 81
76 82
76 83
76 84
76 85
76 86
76 134
76 142
76 149
76 156
76 170
76 191
76 200
76 210
76 231
76 236
76 246
76 248
76 249
77 78
77 79
77 80
77 81
77 82
77 83
77 84
77 85
77 86
77 129
77 145
77 153
77 163
77 175
77 187
77 199
77 209
77 221
77 222
77 223
77 224
77 225
78 79
78 80
78 81
78 82
78 83
78 84
78 85
78 86
78 135
78 143
78 150
78 161
78 169
78 192
78 201
78 211
78 216
78 217
78 218
78 219
78 220
79 80
79 81
79 82
79 83
79 84
79 85
79 86
79 87
79 88
79 89
79 90
79 91
79 92
79 93
79 94
79 95
79 96
79 97
79 98
79 99
80 81
80 82
80 83
80 84
80 85
80 86
80 133
80 140
80 151
80 158
80 167
80 190
80 196
80 202
80 203
80 204
80 205
80 206
80 207
81 82
81 83
81 84
81 85
81 86
81 131
81 138
81 146
81 159
81 168
81 188
81 193
81 214
81 229
81 238
81 245
81 252
81 253
82 83
82 84
82 85
82 86
82 132
82 139
82 147
82 157
82 166
82 189
82 195
82 215
82 227
82 239
82 241
82 242
82 243
83 84
83 85
83 86
83 113
83 114
83 115
83 116
83 117
83 118
83 119
83 120
83 121
83 122
83 123
83 124
83 125
84 85
84 86
84 128
84 144
84 152
84 164
84 172
84 184
84 194
84 212
84 228
84 240
84 244
84 254
84 255
85 86
85 127
85 136
85 154
85 165
85 173
85 185
85 197
85 213
85 230
85 232
85 233
85 234
85 235
86 130
86 137
86 148
86 160
86 171
86 176
86 177
86 178
86 179
86 180
86 181
86 182
86 183
87 88
87 89
87 90
87 91
87 92
87 93
87 94
87 95
87 96
87 97
87 98
87 99
87 105
87 114
87 176
87 202
87 217
87 221
87 226
87 227
87 228
87 229
87 230
87 231
88 89
88 90
88 91
88 92
88 93
88 94
88 95
88 96
88 97
88 98
88 99
88 102
88 113
88 182
88 204
88 219
88 223
88 232
88 242
88 244
88 245
88 246
88 247
89 90
89 91
89 92
89 93
89 94
89 95
89 96
89 97
89 98
89 99
89 100
89 122
89 179
89 203
89 216
89 222
89 234
89 241
89 248
89 250
89 252
89 255
90 91
90 92
90 93
90 94
90 95
90 96
90 97
90 98
90 99
90 109
90 116
90 180
90 184
90 185
90 186
90 187
90 188
90 189
90 190
90 191
90 192
91 92
91 93
91 94
91 95
91 96
91 97
91 98
91 99
91 106
91 115
91 126
91 127
91 128
91 129
91 130
91 131
91 132
91 133
91 134
91 135
92 93
92 94
92 95
92 96
92 97
92 98
92 99
92 103
92 118
92 146
92 147
92 148
92 149
92 150
92 151
92 152
92 153
92 154
92 155
93 94
93 95
93 96
93 97
93 98
93 99
93 101
93 119
93 166
93 167
93 168
93 169
93 170
93 171
93 172
93 173
93 174
93 175
94 95
94 96
94 97
94 98
94 99
94 112
94 117
94 181
94 193
94 194
94 195
94 196
94 197
94 198
94 199
94 200
94 201
95 96
95 97
95 98
95 99
95 110
95 120
95 177
95 207
95 208
95 209
95 210
95 211
95 212
95 213
95 214
95 215
96 97
96 98
96 99
96 104
96 121
96 156
96 157
96 158
96 159
96 160
96 161
96 162
96 163
96 164
96 165
97 98
97 99
97 108
97 124
97 183
97 206
97 220
97 224
97 235
97 236
97 237
97 238
97 239
97 240
98 99
98 111
98 123
98 136
98 137
98 138
98 139
98 140
98 141
98 142
98 143
98 144
98 145
99 107
99 125
99 178
99 205
99 218
99 225
99 233
99 243
99 249
99 251
99 253
99 254
100 101
100 102
100 103
100 104
100 105
100 106
100 107
100 108
100 109
100 110
100 111
100 112
100 122
100 179
100 203
100 216
100 222
100 234
100 241
100 248
100 250
100 252
100 255
101 102
101 103
101 104
101 105
101 106
101 107
101 108
101 109
101 110
101 111
101 112
101 119
101 166
101 167
101 168
101 169
101 170
101 171
101 172
101 173
101 174
101 175
102 103
102 104
102 105
102 106
102 107
102 108
102 109
102 110
102 111
102 112
102 113
102 182
102 204
102 219
102 223
102 232
102 242
102 244
102 245
102 246
102 247
103 104
103 105
103 106
103 107
103 108
103 109
103 110
103 111
103 112
103 118
103 146
103 147
103 148
103 149
103 150
103 151
103 152
103 153
103 154
103 155
104 105
104 106
104 107
104 108
104 109
104 110
104 111
104 112
104 121
104 156
104 157
104 158
104 159
104 160
104 161
104 162
104 163
104 164
104 165
105 106
105 107
105 108
105 109
105 110
105 111
105 112
105 114
105 176
105 202
105 217
105 221
105 226
105 227
105 228
105 229
105 230
105 231
106 107
106 108
106 109
106 110
106 111
106 112
106 115
106 126
106 127
106 128
106 129
106 130
106 131
106 132
106 133
106 134
106 135
107 108
107 109
107 110
107 111
107 112
107 125
107 178
107 205
107 218
107 225
107 233
107 243
107 249
107 251
107 253
107 254
108 109
108 110
108 111
108 112
108 124
108 183
108 206
108 220
108 224
108 235
108 236
108 237
108 238
108 239
108 240
109 110
109 111
109 112
109 116
109 180
109 184
109 185
109 186
109 187
109 188
109 189
109 190
109 191
109 192
110 111
110 112
110 120
110 177
110 207
110 208
110 209
110 210
110 211
110 212
110 213
110 214
110 215
111 112
111 123
111 136
111 137
111 138
111 139
111 140
111 141
111 142
111 143
111 144
111 145
112 117
112 181
112 193
112 194
112 195
112 196
112 197
112 198
112 199
112 200
112 201
113 114
113 115
113 116
113 117
113 118
113 119
113 120
113 121
113 122
113 123
113 124
113 125
113 182
113 204
113 219
113 223
113 232
113 242
113 244
113 245
113 246
113 247
114 115
114 116
114 117
114 118
114 119
114 120
114 121
114 122
114 123
114 124
114 125
114 176
114 202
114 217
114 221
114 226
114 227
114 228
114 229
114 230
114 231
115 116
115 117
115 118
115 119
115 120
115 121
115 122
115 123
115 124
115 125
115 126
115 127
115 128
115 129
115 130
115 131
115 132
115 133
115 134
115 135
116 117
116 118
116 119
116 120
116 121
116 122
116 123
116 124
116 125
116 180
116 184
116 185
116 186
116 187
116 188
116 189
116 190
116 191
116 192
117 118
117 119
117 120
117 121
117 122
117 123
117 124
117 125
117 181
117 193
117 194
117 195
117 196
117 197
117 198
117 199
117 200
117 201
118 119
118 120
118 121
118 122
118 123
118 124
118 125
118 146
118 147
118 148
118 149
118 150
118 151
118 152
118 153
118 154
118 155
119 120
119 121
119 122
119 123
119 124
119 125
119 166
119 167
119 168
119 169
119 170
119 171
119 172
119 173
119 174
119 175
120 121
120 122
120 123
120 124
120 125
120 177
120 207
120 208
120 209
120 210
120 211
120 212
120 213
120 214
120 215
121 122
121 123
121 124
121 125
121 156
121 157
121 158
121 159
121 160
121 161
121 162
121 163
121 164
121 165
122 123
122 124
122 125
122 179
122 203
122 216
122 222
122 234
122 241
122 248
122 250
122 252
122 255
123 124
123 125
123 136
123 137
123 138
123 139
123 140
123 141
123 142
123 143
123 144
123 145
124 125
124 183
124 206
124 220
124 224
124 235
124 236
124 237
124 238
124 239
124 240
125 178
125 205
125 218
125 225
125 233
125 243
125 249
125 251
125 253
125 254
126 127
126 128
126 129
126 130
126 131
126 132
126 133
126 134
126 135
126 141
126 155
126 162
126 174
126 186
126 198
126 208
126 226
126 237
126 247
126 250
126 251
127 128
127 129
127 130
127 131
127 132
127 133
127 134
127 135
127 136
127 154
127 165
127 173
127 185
127 197
127 213
127 230
127 232
127 233
127 234
127 235
128 129
128 130
128 131
128 132
128 133
128 134
128 135
128 144
128 152
128 164
128 172
128 184
128 194
128 212
128 228
128 240
128 244
128 254
128 255
129 130
129 131
129 132
129 133
129 134
129 135
129 145
129 153
129 163
129 175
129 187
129 199
129 209
129 221
129 222
129 223
129 224
129 225
130 131
130 132
130 133
130 134
130 135
130 137
130 148
130 160
130 171
130 176
130 177
130 178
130 179
130 180
130 181
130 182
130 183
131 132
131 133
131 134
131 135
131 138
131 146
131 159
131 168
131 188
131 193
131 214
131 229
131 238
131 245
131 252
131 253
132 133
132 134
132 135
132 139
132 147
132 157
132 166
132 189
132 195
132 215
132 227
132 239
132 241
132 242
132 243
133 134
133 135
133 140
133 151
133 158
133 167
133 190
133 196
133 202
133 203
133 204
133 205
133 206
133 207
134 135
134 142
134 149
134 156
134 170
134 191
134 200
134 210
134 231
134 236
134 246
134 248
134 249
135 143
135 150
135 161
135 169
135 192
135 201
135 211
135 216
135 217
135 218
135 219
135 220
136 137
136 138
136 139
136 140
136 141
136 142
136 143
136 144
136 145
136 154
136 165
136 173
136 185
136 197
136 213
136 230
136 232
136 233
136 234
136 235
137 138
137 139
137 140
137 141
137 142
137 143
137 144
137 145
137 148
137 160
137 171
137 176
137 177
137 178
137 179
137 180
137 181
137 182
137 183
138 139
138 140
138 141
138 142
138 143
138 144
138 145
138 146
138 159
138 168
138 188
138 193
138 214
138 229
138 238
138 245
138 252
138 253
139 140
139 141
139 142
139 143
139 144
139 145
139 147
139 157
139 166
139 189
139 195
139 215
139 227
139 239
139 241
139 242
139 243
140 141
140 142
140 143
140 144
140 145
140 151
140 158
140 167
140 190
140 196
140 202
140 203
140 204
140 205
140 206
140 207
141 142
141 143
141 144
141 145
141 155
141 162
141 174
141 186
141 198
141 208
141 226
141 237
141 247
141 250
141 251
142 143
142 144
142 145
142 149
142 156
142 170
142 191
142 200
142 210
142 231
142 236
142 246
142 248
142 249
143 144
143 145
143 150
143 161
143 169
143 192
143 201
143 211
143 216
143 217
143 218
143 219
143 220
144 145
144 152
144 164
144 172
144 184
144 194
144 212
144 228
144 240
144 244
144 254
144 255
145 153
145 163
145 175
145 187
145 199
145 209
145 221
145 222
145 223
145 224
145 225
146 147
146 148
146 149
146 150
146 151
146 152
146 153
146 154
146 155
146 159
146 168
146 188
146 193
146 214
146 229
146 238
146 245
146 252
146 253
147 148
147 149
147 150
147 151
147 152
147 153
147 154
147 155
147 157
147 166
147 189
147 195
147 215
147 227
147 239
147 241
147 242
147 243
148 149
148 150
148 151
148 152
148 153
148 154
148 155
148 160
148 171
148 176
148 177
148 178
148 179
148 180
148 181
148 182
148 183
149 150
149 151
149 152
149 153
149 154
149 155
149 156
149 170
149 191
149 200
149 210
149 231
149 236
149 246
149 248
149 249
150 151
150 152
150 153
150 154
150 155
150 161
150 169
150 192
150 201
150 211
150 216
150 217
150 218
150 219
150 220
151 152
151 153
151 154
151 155
151 158
151 167
151 190
151 196
151 202
151 203
151 204
151 205
151 206
151 207
152 153
152 154
152 155
152 164
152 172
152 184
152 194
152 212
152 228
152 240
152 244
152 254
152 255
153 154
153 155
153 163
153 175
153 187
153 199
153 209
153 221
153 222
153 223
153 224
153 225
154 155
154 165
154 173
154 185
154 197
154 213
154 230
154 232
154 233
154 234
154 235
155 162
155 174
155 186
155 198
155 208
155 226
155 237
155 247
155 250
155 251
156 157
156 158
156 159
156 160
156 161
156 162
156 163
156 164
156 165
156 170
156 191
156 200
156 210
156 231
156 236
156 246
156 248
156 249
157 158
157 159
157 160
157 161
157 162
157 163
157 164
157 165
157 166
157 189
157 195
157 215
157 227
157 239
157 241
157 242
157 243
158 159
158 160
158 161
158 162
158 163
158 164
158 165
158 167
158 190
158 196
158 202
158 203
158 204
158 205
158 206
158 207
159 160
159 161
159 162
159 163
159 164
159 165
159 168
159 188
159 193
159 214
159 229
159 238
159 245
159 252
159 253
160 161
160 162
160 163
160 164
160 165
160 171
160 176
160 177
160 178
160 179
160 180
160 181
160 182
160 183
161 162
161 163
161 164
161 165
161 169
161 192
161 201
161 211
161 216
161 217
161 218
161 219
161 220
162 163
162 164
162 165
162 174
162 186
162 198
162 208
162 226
162 237
162 247
162 250
162 251
163 164
163 165
163 175
163 187
163 199
163 209
163 221
163 222
163 223
163 224
163 225
164 165
164 172
164 184
164 194
164 212
164 228
164 240
164 244
164 254
164 255
165 173
165 185
165 197
165 213
165 230
165 232
165 233
165 234
165 235
166 167
166 168
166 169
166 170
166 171
166 172
166 173
166 174
166 175
166 189
166 195
166 215
166 227
166 239
166 241
166 242
166 243
167 168
167 169
167 170
167 171
167 172
167 173
167 174
167 175
167 190
167 196
167 202
167 203
167 204
167 205
167 206
167 207
168 169
168 170
168 171
168 172
168 173
168 174
168 175
168 188
168 193
168 214
168 229
168 238
168 245
168 252
168 253
169 170
169 171
169 172
169 173
169 174
169 175
169 192
169 201
169 211
169 216
169 217
169 218
169 219
169 220
170 171
170 172
170 173
170 174
170 175
170 191
170 200
170 210
170 231
170 236
170 246
170 248
170 249
171 172
171 173
171 174
171 175
171 176
171 177
171 178
171 179
171 180
171 181
171 182
171 183
172 173
172 174
172 175
172 184
172 194
172 212
172 228
172 240
172 244
172 254
172 255
173 174
173 175
173 185
173 197
173 213
173 230
173 232
173 233
173 234
173 235
174 175
174 186
174 198
174 208
174 226
174 237
174 247
174 250
174 251
175 187
175 199
175 209
175 221
175 222
175 223
175 224
175 225
176 177
176 178
176 179
176 180
176 181
176 182
176 183
176 202
176 217
176 221
176 226
176 227
176 228
176 229
176 230
176 231
177 178
177 179
177 180
177 181
177 182
177 183
177 207
177 208
177 209
177 210
177 211
177 212
177 213
177 214
177 215
178 179
178 180
178 181
178 182
178 183
178 205
178 218
178 225
178 233
178 243
178 249
178 251
178 253
178 254
179 180
179 181
179 182
179 183
179 203
179 216
179 222
179 234
179 241
179 248
179 250
179 252
179 255
180 181
180 182
180 183
180 184
180 185
180 186
180 187
180 188
180 189
180 190
180 191
180 192
181 182
181 183
181 193
181 194
181 195
181 196
181 197
181 198
181 199
181 200
181 201
182 183
182 204
182 219
182 223
182 232
182 242
182 244
182 245
182 246
182 247
183 206
183 220
183 224
183 235
183 236
183 237
183 238
183 239
183 240
184 185
184 186
184 187
184 188
184 189
184 190
184 191
184 192
184 194
184 212
184 228
184 240
184 244
184 254
184 255
185 186
185 187
185 188
185 189
185 190
185 191
185 192
185 197
185 213
185 230
185 232
185 233
185 234
185 235
186 187
186 188
186 189
186 190
186 191
186 192
186 198
186 208
186 226
186 237
186 247
186 250
186 251
187 188
187 189
187 190
187 191
187 192
187 199
187 209
187 221
187 222
187 223
187 224
187 225
188 189
188 190
188 191
188 192
188 193
188 214
188 229
188 238
188 245
188 252
188 253
189 190
189 191
189 192
189 195
189 215
189 227
189 239
189 241
189 242
189 243
190 191
190 192
190 196
190 202
190 203
190 204
190 205
190 206
190 207
191 192
191 200
191 210
191 231
191 236
191 246
191 248
191 249
192 201
192 211
192 216
192 217
192 218
192 219
192 220
193 194
193 195
193 196
193 197
193 198
193 199
193 200
193 201
193 214
193 229
193 238
193 245
193 252
193 253
194 195
194 196
194 197
194 198
194 199
194 200
194 201
194 212
194 228
194 240
194 244
194 254
194 255
195 196
195 197
195 198
195 199
195 200
195 201
195 215
195 227
195 239
195 241
195 242
195 243
196 197
196 198
196 199
196 200
196 201
196 202
196 203
196 204
196 205
196 206
196 207
197 198
197 199
197 200
197 201
197 213
197 230
197 232
197 233
197 234
197 235
198 199
198 200
198 201
198 208
198 226
198 237
198 247
198 250
198 251
199 200
199 201
199 209
199 221
199 222
199 223
199 224
199 225
200 201
200 210
200 231
200 236
200 246
200 248
200 249
201 211
201 216
201 217
201 218
201 219
201 220
202 203
202 204
202 205
202 206
202 207
202 217
202 221
202 226
202 227
202 228
202 229
202 230
202 231
203 204
203 205
203 206
203 207
203 216
203 222
203 234
203 241
203 248
203 250
203 252
203 255
204 205
204 206
204 207
204 219
204 223
204 232
204 242
204 244
204 245
204 246
204 247
205 206
205 207
205 218
205 225
205 233
205 243
205 249
205 251
205 253
205 254
206 207
206 220
206 224
206 235
206 236
206 237
206 238
206 239
206 240
207 208
207 209
207 210
207 211
207 212
207 213
207 214
207 215
208 209
208 210
208 211
208 212
208 213
208 214
208 215
208 226
208 237
208 247
208 250
208 251
209 210
209 211
209 212
209 213
209 214
209 215
209 221
209 222
209 223
209 224
209 225
210 211
210 212
210 213
210 214
210 215
210 231
210 236
210 246
210 248
210 249
211 212
211 213
211 214
211 215
211 216
211 217
211 218
211 219
211 220
212 213
212 214
212 215
212 228
212 240
212 244
212 254
212 255
213 214
213 215
213 230
213 232
213 233
213 234
213 235
214 215
214 229
214 238
214 245
214 252
214 253
215 227
215 239
215 241
215 242
215 243
216 217
216 218
216 219
216 220
216 222
216 234
216 241
216 248
216 250
216 252
216 255
217 218
217 219
217 220
217 221
217 226
217 227
217 228
217 229
217 230
217 231
218 219
218 220
218 225
218 233
218 243
218 249
218 251
218 253
218 254
219 220
219 223
219 232
219 242
219 244
219 245
219 246
219 247
220 224
220 235
220 236
220 237
220 238
220 239
220 240
221 222
221 223
221 224
221 225
221 226
221 227
221 228
221 229
221 230
221 231
222 223
222 224
222 225
222 234
222 241
222 248
222 250
222 252
222 255
223 224
223 225
223 232
223 242
223 244
223 245
223 246
223 247
224 225
224 235
224 236
224 237
224 238
224 239
224 240
225 233
225 243
225 249
225 251
225 253
225 254
226 227
226 228
226 229
226 230
226 231
226 237
226 247
226 250
226 251
227 228
227 229
227 230
227 231
227 239
227 241
227 242
227 243
228 229
228 230
228 231
228 240
228 244
228 254
228 255
229 230
229 231
229 238
229 245
229 252
229 253
230 231
230 232
230 233
230 234
230 235
231 236
231 246
231 248
231 249
232 233
232 234
232 235
232 242
232 244
232 245
232 246
232 247
233 234
233 235
233 243
233 249
233 251
233 253
233 254
234 235
234 241
234 248
234 250
234 252
234 255
235 236
235 237
235 238
235 239
235 240
236 237
236 238
236 239
236 240
236 246
236 248
236 249
237 238
237 239
237 240
237 247
237 250
237 251
238 239
238 240
238 245
238 252
238 253
239 240
239 241
239 242
239 243
240 244
240 254
240 255
241 242
241 243
241 248
241 250
241 252
241 255
242 243
242 244
242 245
242 246
242 247
243 249
243 251
243 253
243 254
244 245
244 246
244 247
244 254
244 255
245 246
245 247
245 252
245 253
246 247
246 248
246 249
247 250
247 251
248 249
248 250
248 252
248 255
249 251
249 253
249 254
250 251
250 252
250 255
251 253
251 254
252 253
252 255
253 254
254 255
